proyfinal/src/viki/013/experimentInOfficeAgust.take6.output/7959b9c6-527a-45ed-b82a-eaeb346cd51c.als.dat
{'cnf.clauses': '118081',
 'cnf.totvars': '69608',
 'conflict literals': '175',
 'conflicts': '36',
 'decisions': '2543',
 'memused.mb': '14.22',
 'outcome': 'UNSAT',
 'propagations': '73457',
 'restarts': '1',
 'solver.msecs': 33,
 'task.msecs': 113}
