proyfinal/src/viki/013/experimentInOfficeAgust.take6.output/7959b9c6-527a-45ed-b82a-eaeb346cd51c.als.out
Reading from standard input... Use '--help' for help.
============================[ Problem Statistics ]=============================
|                                                                             |
|  Number of variables:         69608                                         |
|  Number of clauses:          118081                                         |
|  Parse time:                   0.02 s                                       |
|                                                                             |
============================[ Search Statistics ]==============================
| Conflicts |          ORIGINAL         |          LEARNT          | Progress |
|           |    Vars  Clauses Literals |    Limit  Clauses Lit/Cl |          |
===============================================================================
===============================================================================
restarts              : 1
conflicts             : 36             (1067 /sec)
decisions             : 2543           (0.00 % random) (75397 /sec)
propagations          : 73457          (2177923 /sec)
conflict literals     : 175            (18.60 % deleted)
Memory used           : 14.22 MB
CPU time              : 0.033728 s

UNSATISFIABLE
